p edge 85 1060
e 1 3
e 1 8
e 1 10
e 1 11
e 1 15
e 1 17
e 1 19
e 1 21
e 1 25
e 1 26
e 1 32
e 1 34
e 1 35
e 1 38
e 1 44
e 1 46
e 1 49
e 1 53
e 1 68
e 1 69
e 1 78
e 1 83
e 1 85
e 2 4
e 2 18
e 2 21
e 2 22
e 2 25
e 2 28
e 2 29
e 2 37
e 2 39
e 2 41
e 2 43
e 2 49
e 2 52
e 2 53
e 2 54
e 2 55
e 2 60
e 2 66
e 2 67
e 2 68
e 2 70
e 2 73
e 2 75
e 2 77
e 2 78
e 2 80
e 2 81
e 2 85
e 3 4
e 3 6
e 3 8
e 3 13
e 3 20
e 3 23
e 3 26
e 3 28
e 3 31
e 3 34
e 3 40
e 3 41
e 3 54
e 3 57
e 3 59
e 3 61
e 3 66
e 3 67
e 3 74
e 4 5
e 4 6
e 4 8
e 4 9
e 4 19
e 4 23
e 4 24
e 4 26
e 4 40
e 4 42
e 4 43
e 4 44
e 4 46
e 4 47
e 4 49
e 4 53
e 4 56
e 4 59
e 4 60
e 4 61
e 4 69
e 4 70
e 4 71
e 4 74
e 4 84
e 5 9
e 5 14
e 5 15
e 5 17
e 5 21
e 5 22
e 5 23
e 5 24
e 5 26
e 5 28
e 5 31
e 5 41
e 5 43
e 5 44
e 5 45
e 5 46
e 5 50
e 5 51
e 5 53
e 5 56
e 5 57
e 5 59
e 5 67
e 5 70
e 5 75
e 5 78
e 5 79
e 5 82
e 5 85
e 6 7
e 6 10
e 6 11
e 6 14
e 6 22
e 6 23
e 6 27
e 6 28
e 6 29
e 6 31
e 6 32
e 6 33
e 6 34
e 6 37
e 6 39
e 6 42
e 6 46
e 6 52
e 6 53
e 6 56
e 6 58
e 6 67
e 6 68
e 6 81
e 7 8
e 7 10
e 7 11
e 7 16
e 7 18
e 7 21
e 7 23
e 7 24
e 7 26
e 7 28
e 7 29
e 7 39
e 7 40
e 7 42
e 7 44
e 7 45
e 7 52
e 7 53
e 7 56
e 7 57
e 7 60
e 7 61
e 7 63
e 7 66
e 7 67
e 7 69
e 7 72
e 7 74
e 7 79
e 7 82
e 7 83
e 7 85
e 8 11
e 8 12
e 8 14
e 8 20
e 8 21
e 8 25
e 8 26
e 8 28
e 8 32
e 8 34
e 8 36
e 8 43
e 8 50
e 8 51
e 8 53
e 8 54
e 8 55
e 8 56
e 8 59
e 8 62
e 8 68
e 8 71
e 8 79
e 8 81
e 8 83
e 9 15
e 9 20
e 9 22
e 9 23
e 9 24
e 9 27
e 9 28
e 9 29
e 9 30
e 9 32
e 9 35
e 9 36
e 9 41
e 9 43
e 9 49
e 9 51
e 9 52
e 9 56
e 9 58
e 9 59
e 9 60
e 9 62
e 9 65
e 9 66
e 9 68
e 9 76
e 9 80
e 9 81
e 9 83
e 9 84
e 9 85
e 10 11
e 10 12
e 10 14
e 10 15
e 10 16
e 10 20
e 10 25
e 10 28
e 10 32
e 10 33
e 10 40
e 10 46
e 10 54
e 10 64
e 10 65
e 10 68
e 10 73
e 10 78
e 10 81
e 10 84
e 11 13
e 11 14
e 11 19
e 11 20
e 11 23
e 11 26
e 11 27
e 11 28
e 11 32
e 11 34
e 11 44
e 11 46
e 11 48
e 11 50
e 11 51
e 11 53
e 11 55
e 11 56
e 11 60
e 11 61
e 11 62
e 11 66
e 11 67
e 11 68
e 11 70
e 11 74
e 11 78
e 11 80
e 11 83
e 11 84
e 12 13
e 12 15
e 12 16
e 12 21
e 12 22
e 12 26
e 12 29
e 12 35
e 12 36
e 12 40
e 12 45
e 12 46
e 12 56
e 12 61
e 12 67
e 12 71
e 12 74
e 12 78
e 12 80
e 13 17
e 13 19
e 13 21
e 13 22
e 13 25
e 13 29
e 13 32
e 13 47
e 13 48
e 13 56
e 13 57
e 13 64
e 13 82
e 13 84
e 14 19
e 14 21
e 14 28
e 14 33
e 14 43
e 14 51
e 14 56
e 14 60
e 14 64
e 14 65
e 14 68
e 14 72
e 14 77
e 14 80
e 14 81
e 15 17
e 15 21
e 15 22
e 15 24
e 15 26
e 15 38
e 15 45
e 15 51
e 15 53
e 15 57
e 15 62
e 15 68
e 15 71
e 15 74
e 15 75
e 15 78
e 15 81
e 15 85
e 16 18
e 16 25
e 16 28
e 16 29
e 16 30
e 16 31
e 16 32
e 16 44
e 16 48
e 16 50
e 16 51
e 16 54
e 16 60
e 16 61
e 16 62
e 16 63
e 16 64
e 16 66
e 16 67
e 16 68
e 16 69
e 16 71
e 16 79
e 16 80
e 16 81
e 16 82
e 16 83
e 17 19
e 17 20
e 17 23
e 17 28
e 17 36
e 17 37
e 17 40
e 17 48
e 17 50
e 17 51
e 17 52
e 17 55
e 17 58
e 17 74
e 17 81
e 17 82
e 18 19
e 18 35
e 18 43
e 18 45
e 18 46
e 18 49
e 18 55
e 18 59
e 18 71
e 18 78
e 18 80
e 18 82
e 18 85
e 19 21
e 19 22
e 19 25
e 19 30
e 19 33
e 19 40
e 19 42
e 19 43
e 19 48
e 19 49
e 19 51
e 19 52
e 19 53
e 19 54
e 19 55
e 19 56
e 19 57
e 19 62
e 19 63
e 19 64
e 19 74
e 19 75
e 19 76
e 19 77
e 19 78
e 19 79
e 19 80
e 19 81
e 20 33
e 20 35
e 20 40
e 20 53
e 20 57
e 20 61
e 20 62
e 20 63
e 20 65
e 20 67
e 20 72
e 20 79
e 20 83
e 21 23
e 21 24
e 21 31
e 21 35
e 21 39
e 21 42
e 21 46
e 21 47
e 21 49
e 21 52
e 21 54
e 21 60
e 21 63
e 21 66
e 21 70
e 21 72
e 21 73
e 22 23
e 22 29
e 22 34
e 22 37
e 22 41
e 22 42
e 22 50
e 22 54
e 22 55
e 22 61
e 22 67
e 22 68
e 22 72
e 22 75
e 22 76
e 22 80
e 22 81
e 22 83
e 23 27
e 23 33
e 23 36
e 23 37
e 23 40
e 23 47
e 23 50
e 23 52
e 23 54
e 23 58
e 23 59
e 23 64
e 23 67
e 23 69
e 23 71
e 23 74
e 23 75
e 23 76
e 23 78
e 23 81
e 23 83
e 24 25
e 24 27
e 24 33
e 24 46
e 24 48
e 24 50
e 24 51
e 24 56
e 24 58
e 24 60
e 24 62
e 24 64
e 24 68
e 24 71
e 24 73
e 24 75
e 24 79
e 24 81
e 25 27
e 25 32
e 25 34
e 25 37
e 25 39
e 25 40
e 25 45
e 25 48
e 25 50
e 25 54
e 25 62
e 25 63
e 25 69
e 25 71
e 25 73
e 25 74
e 25 76
e 25 77
e 26 31
e 26 33
e 26 35
e 26 46
e 26 48
e 26 49
e 26 52
e 26 54
e 26 55
e 26 56
e 26 57
e 26 59
e 26 60
e 26 61
e 26 63
e 26 70
e 26 71
e 26 72
e 26 74
e 26 79
e 26 80
e 26 84
e 27 28
e 27 29
e 27 30
e 27 31
e 27 36
e 27 38
e 27 39
e 27 45
e 27 47
e 27 50
e 27 51
e 27 52
e 27 59
e 27 62
e 27 66
e 27 68
e 27 69
e 27 72
e 27 73
e 27 75
e 27 77
e 27 78
e 28 37
e 28 41
e 28 42
e 28 44
e 28 47
e 28 50
e 28 53
e 28 54
e 28 59
e 28 61
e 28 64
e 28 66
e 28 67
e 28 70
e 28 76
e 28 83
e 28 85
e 29 31
e 29 34
e 29 35
e 29 36
e 29 38
e 29 48
e 29 49
e 29 50
e 29 51
e 29 64
e 29 65
e 29 67
e 29 69
e 29 71
e 29 74
e 29 79
e 29 82
e 29 84
e 30 31
e 30 35
e 30 40
e 30 44
e 30 46
e 30 51
e 30 54
e 30 55
e 30 56
e 30 57
e 30 59
e 30 60
e 30 61
e 30 62
e 30 63
e 30 64
e 30 69
e 30 74
e 30 75
e 30 79
e 30 80
e 31 33
e 31 37
e 31 40
e 31 42
e 31 44
e 31 45
e 31 47
e 31 50
e 31 52
e 31 53
e 31 54
e 31 65
e 31 69
e 31 70
e 31 71
e 31 75
e 31 79
e 31 81
e 31 82
e 32 34
e 32 42
e 32 43
e 32 48
e 32 50
e 32 53
e 32 56
e 32 58
e 32 61
e 32 67
e 32 69
e 32 71
e 32 76
e 32 78
e 32 82
e 32 83
e 32 84
e 32 85
e 33 36
e 33 42
e 33 47
e 33 49
e 33 51
e 33 56
e 33 60
e 33 61
e 33 72
e 33 73
e 33 74
e 33 76
e 33 78
e 33 80
e 33 81
e 33 84
e 34 38
e 34 48
e 34 55
e 34 56
e 34 73
e 34 75
e 34 81
e 34 82
e 34 83
e 35 40
e 35 43
e 35 44
e 35 49
e 35 51
e 35 56
e 35 65
e 35 66
e 35 67
e 35 68
e 35 70
e 35 73
e 35 79
e 35 81
e 36 37
e 36 48
e 36 49
e 36 60
e 36 61
e 36 64
e 36 66
e 36 69
e 36 77
e 36 78
e 36 80
e 36 82
e 36 83
e 37 41
e 37 46
e 37 49
e 37 51
e 37 53
e 37 54
e 37 60
e 37 65
e 37 68
e 37 69
e 37 72
e 37 75
e 37 83
e 38 42
e 38 43
e 38 44
e 38 49
e 38 51
e 38 54
e 38 55
e 38 60
e 38 73
e 38 75
e 38 78
e 38 80
e 39 40
e 39 41
e 39 45
e 39 48
e 39 56
e 39 60
e 39 61
e 39 63
e 39 64
e 39 71
e 39 74
e 39 75
e 39 76
e 39 82
e 39 84
e 40 41
e 40 47
e 40 49
e 40 51
e 40 52
e 40 54
e 40 57
e 40 59
e 40 65
e 40 66
e 40 72
e 40 76
e 40 84
e 41 43
e 41 49
e 41 50
e 41 57
e 41 59
e 41 65
e 41 66
e 41 67
e 41 69
e 41 79
e 41 80
e 41 82
e 41 83
e 42 43
e 42 47
e 42 54
e 42 55
e 42 63
e 42 67
e 42 80
e 43 45
e 43 49
e 43 54
e 43 55
e 43 59
e 43 62
e 43 67
e 43 78
e 44 45
e 44 47
e 44 48
e 44 56
e 44 57
e 44 59
e 44 60
e 44 61
e 44 63
e 44 66
e 44 71
e 44 73
e 44 74
e 44 77
e 44 80
e 44 82
e 45 46
e 45 47
e 45 50
e 45 51
e 45 55
e 45 57
e 45 60
e 45 69
e 45 77
e 46 48
e 46 49
e 46 51
e 46 55
e 46 70
e 46 75
e 46 78
e 47 51
e 47 52
e 47 58
e 47 62
e 47 63
e 47 71
e 47 77
e 47 78
e 47 81
e 47 83
e 48 49
e 48 52
e 48 59
e 48 62
e 48 63
e 48 64
e 48 74
e 48 75
e 48 77
e 48 81
e 49 50
e 49 58
e 49 61
e 49 64
e 49 65
e 49 67
e 49 69
e 49 71
e 49 72
e 49 73
e 49 76
e 49 79
e 49 85
e 50 63
e 50 64
e 50 65
e 50 70
e 50 76
e 50 81
e 50 85
e 51 53
e 51 54
e 51 57
e 51 58
e 51 61
e 51 63
e 51 67
e 51 68
e 51 70
e 51 76
e 51 84
e 52 54
e 52 55
e 52 56
e 52 62
e 52 66
e 52 70
e 52 71
e 52 72
e 52 73
e 52 75
e 52 83
e 53 56
e 53 58
e 53 59
e 53 73
e 53 75
e 53 77
e 53 79
e 54 60
e 54 62
e 54 66
e 54 67
e 54 68
e 54 73
e 54 81
e 54 82
e 54 85
e 55 56
e 55 59
e 55 60
e 55 63
e 55 65
e 55 68
e 55 72
e 55 73
e 55 78
e 55 80
e 56 58
e 56 63
e 56 67
e 56 76
e 56 77
e 56 78
e 57 59
e 57 65
e 57 66
e 57 71
e 57 74
e 57 76
e 57 79
e 57 81
e 58 61
e 58 63
e 58 64
e 58 65
e 58 66
e 58 68
e 58 74
e 58 79
e 58 82
e 58 85
e 59 63
e 59 64
e 59 65
e 59 67
e 59 68
e 59 69
e 59 72
e 59 73
e 59 74
e 59 78
e 59 83
e 60 61
e 60 62
e 60 64
e 60 67
e 60 68
e 60 69
e 60 70
e 60 72
e 60 77
e 60 79
e 60 81
e 60 85
e 61 63
e 61 64
e 61 65
e 61 68
e 61 73
e 61 77
e 61 79
e 61 82
e 62 69
e 62 72
e 62 79
e 62 81
e 62 83
e 63 64
e 63 76
e 63 78
e 63 81
e 63 84
e 64 66
e 64 75
e 64 78
e 64 83
e 64 85
e 65 68
e 65 69
e 65 71
e 65 77
e 65 81
e 65 82
e 65 83
e 66 71
e 66 74
e 66 77
e 66 82
e 66 85
e 67 71
e 67 77
e 67 78
e 67 79
e 67 82
e 67 85
e 68 71
e 68 72
e 68 73
e 68 74
e 68 81
e 68 82
e 69 71
e 69 73
e 69 79
e 69 80
e 69 84
e 70 73
e 70 79
e 70 80
e 70 82
e 70 84
e 71 75
e 71 80
e 72 77
e 73 81
e 73 85
e 74 77
e 74 84
e 75 79
e 75 80
e 75 81
e 76 77
e 76 78
e 76 84
e 77 78
e 77 84
e 78 79
e 78 80
e 78 83
e 79 83
e 79 85
e 80 82
e 80 84
e 82 84
e 83 84
e 83 85
